712577
709584
709584
709584
699892
699892
699226
690787
690787
690787
687982
687263
687263
683159
681115
680605
680605
678668
677333
673931
672443
672443
672443
672443
671149
671149
671149
666273
665395
664972
664972
664972
661307
661307
655003
655003
655003
655003
655003
650598
650598
646322
646076
646076
646076
646076
645221
645221
645221
645221
645221
645221
641215
641215
632982
632982
632982
632982
632982
632345
632345
632345
632345
632345
630964
630964
629355
628756
625107
625107
625107
623773
623773
621374
616911
616911
616911
616633
616371
613245
613245
611135
610619
610619
610619
607566
607566
607566
606650
606650
606650
603223
603223
603223
600256
600256
596856
596856
594700
594700
